\ENCODING=ISO-8859-1
\Problem name: IloCplex

Minimize
 obj: 1000000000000 x1 + 1000000000000 x2 + 1000000000000 x3 + 1000000000000 x4
      + 1000000000000 x5 + 1000000000000 x6 + 1000000000000 x7
      + 1000000000000 x8 + 1000000000000 x9 + 1000000000000 x10
      + 1000000000000 x11 + 1000000000000 x12 + 1000000000000 x13
      + 1000000000000 x14 + 1000000000000 x15 + 1000000000000 x16
      + 1000000000000 x17 + 1000000000000 x18 + 1000000000000 x19
      + 1000000000000 x20 + 1000000000000 x21 + 1000000000000 x22
      + 1000000000000 x23 + 1000000000000 x24 + 1000000000000 x25
      + 1000000000000 x26 + 1000000000000 x27 + 1000000000000 x28
      + 1000000000000 x29 + 1000000000000 x30 + 1000000000000 x31
      + 1000000000000 x32 + 1000000000000 x33 + 1000000000000 x34
      + 1000000000000 x35 + 1000000000000 x36 + 1000000000000 x37
      + 1000000000000 x38 + 1000000000000 x39 + 1000000000000 x40
      + 1000000000000 x41 + 1000000000000 x42 + 1000000000000 x43
      + 1000000000000 x44 + 1000000000000 x45 + 1000000000000 x46
      + 1000000000000 x47 + 1000000000000 x48 + 1000000000000 x49
      + 1000000000000 x50 + x51 + x52 + x53 + x54 + x55 + x56 + x57 + x58 + x59
      + x60 + x61 + x62 + x63 + x64 + x65 + x66 + x67 + x68 + x69 + x70 + x71
      + x72 + x73 + x74 + x75 + x76 + x77 + x78 + x79 + x80 + x81 + x82 + x83
      + x84 + x85 + x86 + x87 + x88 + x89 + x90 + x91 + x92 + x93 + x94 + x95
      + x96 + x97 + x98 + x99 + x100 + x101 + x102 + x103 + x104 + x105 + x106
      + x107 + x108 + x109 + x110 + x111 + x112 + x113 + x114 + x115 + x116
      + x117 + x118 + x119 + x120 + x121 + x122 + x123 + x124 + x125 + x126
      + x127 + x128 + x129 + x130 + x131 + x132 + x133 + x134 + x135 + x136
      + x137 + x138 + x139 + x140 + x141 + x142 + x143 + x144 + x145 + x146
      + x147 + x148 + x149 + x150 + x151 + x152 + x153 + x154 + x155 + x156
      + x157 + x158 + x159 + x160 + x161 + x162 + x163 + x164 + x165 + x166
      + x167 + x168 + x169 + x170 + x171 + x172 + x173 + x174 + x175 + x176
      + x177 + x178 + x179 + x180 + x181 + x182 + x183 + x184 + x185 + x186
      + x187 + x188 + x189
Subject To
 c1:  x1 + x157  = 1
 c2:  x2 + x154  = 1
 c3:  x3 + x184  = 1
 c4:  x4 + x159 + x189  = 1
 c5:  x5 + x185  = 1
 c6:  x6 + x188  = 1
 c7:  x7 + x173 + x176  = 1
 c8:  x8 + x186  = 1
 c9:  x9 + x158  = 1
 c10: x10 + x155  = 1
 c11: x11 + x181 + x183  = 1
 c12: x12 + x145 + x187  = 1
 c13: x13 + x165 + x178  = 1
 c14: x14 + x126 + x142  = 1
 c15: x15 + x152 + x160 + x182  = 1
 c16: x16 + x161 + x168 + x172 + x179  = 1
 c17: x17 + x146 + x151 + x180  = 1
 c18: x18 + x140 + x143 + x150 + x164  = 1
 c19: x19 + x135 + x141 + x148 + x149  = 1
 c20: x20 + x129 + x130 + x132 + x134 + x170  = 1
 c21: x21 + x108 + x118 + x124 + x125 + x163 + x175 + x177  = 1
 c22: x22 + x115 + x120 + x167 + x169  = 1
 c23: x23 + x107 + x117 + x122 + x123 + x156  = 1
 c24: x24 + x105 + x116 + x128 + x137 + x166 + x171  = 1
 c25: x25 + x95 + x104 + x106 + x138 + x144 + x162  = 1
 c26: x26 + x96 + x101 + x103 + x133 + x136 + x174  = 1
 c27: x27 + x90 + x93 + x94 + x111 + x112 + x131 + x139 + x147  = 1
 c28: x28 + x84 + x85 + x87 + x88 + x102 + x113 + x119 + x121 + x127 + x139
      + x153  = 1
 c29: x29 + x81 + x86 + x100 + x110 + x127 + x147 + x153  = 1
 c30: x30 + x78 + x79 + x81 + x88 + x98 + x109 + x133 + x144  = 1
 c31: x31 + x74 + x75 + x78 + x79 + x82 + x83 + x86 + x114 + x119 + x123 + x131
      + x149 + x174  = 1
 c32: x32 + x73 + x74 + x75 + x77 + x80 + x84 + x89 + x91 + x95 + x99 + x112
      + x114 + x115 + x124 + x137 + x182  = 1
 c33: x33 + x68 + x69 + x70 + x75 + x83 + x91 + x92 + x93 + x97 + x99 + x103
      + x108 + x122 + x152 + x162 + x168  = 1
 c34: x34 + x70 + x71 + x72 + x73 + x80 + x86 + x111 + x129 + x136 + x138
      + x148 + x163 + x180  = 1
 c35: x35 + x69 + x70 + x71 + x74 + x76 + x90 + x97 + x105 + x121 + x126 + x171
      + x178  = 1
 c36: x36 + x64 + x66 + x67 + x68 + x69 + x72 + x73 + x76 + x77 + x80 + x82
      + x85 + x92 + x99 + x101 + x110 + x113 + x114 + x116 + x132 + x141 + x151
       = 1
 c37: x37 + x63 + x64 + x65 + x66 + x70 + x76 + x77 + x87 + x89 + x91 + x92
      + x96 + x109 + x112 + x118 + x125 + x142 + x170  = 1
 c38: x38 + x58 + x59 + x60 + x61 + x63 + x66 + x68 + x72 + x82 + x89 + x91
      + x97 + x98 + x100 + x102 + x106 + x110 + x111 + x119 + x143 + x175  = 1
 c39: x39 + x58 + x59 + x60 + x61 + x62 + x64 + x65 + x67 + x71 + x82 + x83
      + x84 + x94 + x98 + x109 + x113 + x120 + x177  = 1
 c40: x40 + x51 + x52 + x53 + x54 + x55 + x56 + x57 + x58 + x59 + x60 + x62
      + x65 + x66 + x69 + x73 + x77 + x79 + x83 + x88 + x93 + x117 + x130
      + x135 + x136 + x150 + x181  = 1
 c41: x41 + x51 + x52 + x53 + x54 + x55 + x56 + x57 + x58 + x59 + x60 + x61
      + x65 + x67 + x68 + x76 + x80 + x87 + x89 + x92 + x97 + x102 + x103
      + x107 + x117 + x134 + x164 + x167  = 1
 c42: x42 + x51 + x52 + x53 + x54 + x55 + x56 + x57 + x58 + x59 + x62 + x63
      + x67 + x71 + x78 + x85 + x94 + x99 + x100 + x104 + x109 + x116 + x121
      + x140 + x146 + x160 + x161 + x162 + x164 + x165  = 1
 c43: x43 + x51 + x52 + x53 + x54 + x55 + x56 + x57 + x58 + x63 + x64 + x72
      + x74 + x85 + x92 + x95 + x107 + x110 + x114 + x118 + x122 + x128 + x131
      + x145 + x166 + x167 + x170 + x177  = 1
 c44: x44 + x51 + x52 + x53 + x54 + x55 + x56 + x57 + x60 + x61 + x62 + x64
      + x66 + x71 + x72 + x75 + x81 + x89 + x94 + x97 + x104 + x113 + x115
      + x125 + x128 + x138 + x153 + x172 + x183  = 1
 c45: x45 + x51 + x52 + x53 + x54 + x55 + x56 + x60 + x62 + x63 + x65 + x67
      + x68 + x73 + x74 + x77 + x80 + x87 + x90 + x96 + x104 + x107 + x124
      + x128 + x130 + x135 + x148 + x150 + x161 + x172 + x173  = 1
 c46: x46 + x51 + x52 + x53 + x54 + x55 + x61 + x62 + x63 + x65 + x67 + x68
      + x69 + x72 + x76 + x77 + x78 + x83 + x84 + x89 + x92 + x98 + x100 + x102
      + x104 + x108 + x114 + x117 + x128 + x132 + x140 + x145 + x163 + x166
      + x172 + x174 + x175 + x176  = 1
 c47: x47 + x51 + x52 + x53 + x54 + x61 + x62 + x63 + x64 + x70 + x76 + x79
      + x80 + x85 + x93 + x96 + x98 + x99 + x102 + x106 + x127 + x129 + x131
      + x141 + x145 + x166 + x179  = 1
 c48: x48 + x51 + x52 + x53 + x61 + x62 + x63 + x65 + x66 + x67 + x69 + x71
      + x72 + x75 + x79 + x81 + x87 + x91 + x95 + x102 + x108 + x119 + x130
      + x138 + x140 + x141 + x146 + x159  = 1
 c49: x49 + x51 + x52 + x61 + x62 + x64 + x65 + x66 + x67 + x68 + x71 + x73
      + x74 + x78 + x83 + x85 + x91 + x97 + x98 + x101 + x107 + x127 + x128
      + x129 + x130 + x137 + x140 + x160 + x161 + x174  = 1
 c50: x50 + x51 + x61 + x63 + x64 + x65 + x68 + x69 + x71 + x73 + x75 + x76
      + x78 + x82 + x84 + x87 + x93 + x97 + x100 + x105 + x118 + x123 + x129
      + x135 + x160 + x162 + x163 + x165  = 1
End
